n = 14;
lu = [|9, 121
      |-83, 181
      |80, 105
      |-153, 63
      |-186, -46
      |-97, 97
      |-72, 1
      |136, 175
      |-39, 196
      |-172, 123
      |-137, 147
      |23, 81
      |-114, 179
      |16, 150|];
